c description: Tseitin formula on , with odd charge
c generator: CNFgen (0.9.0)
c copyright: (C) 2012-2020 Massimo Lauria <massimo.lauria@uniroma1.it>
c url: https://massimolauria.net/cnfgen
c
p cnf 30 448
1 2 3 4 5 0
1 2 3 -4 -5 0
1 2 -3 4 -5 0
1 2 -3 -4 5 0
1 -2 3 4 -5 0
1 -2 3 -4 5 0
1 -2 -3 4 5 0
1 -2 -3 -4 -5 0
-1 2 3 4 -5 0
-1 2 3 -4 5 0
-1 2 -3 4 5 0
-1 2 -3 -4 -5 0
-1 -2 3 4 5 0
-1 -2 3 -4 -5 0
-1 -2 -3 4 -5 0
-1 -2 -3 -4 5 0
1 6 7 8 9 10 -11 0
1 6 7 8 9 -10 11 0
1 6 7 8 -9 10 11 0
1 6 7 8 -9 -10 -11 0
1 6 7 -8 9 10 11 0
1 6 7 -8 9 -10 -11 0
1 6 7 -8 -9 10 -11 0
1 6 7 -8 -9 -10 11 0
1 6 -7 8 9 10 11 0
1 6 -7 8 9 -10 -11 0
1 6 -7 8 -9 10 -11 0
1 6 -7 8 -9 -10 11 0
1 6 -7 -8 9 10 -11 0
1 6 -7 -8 9 -10 11 0
1 6 -7 -8 -9 10 11 0
1 6 -7 -8 -9 -10 -11 0
1 -6 7 8 9 10 11 0
1 -6 7 8 9 -10 -11 0
1 -6 7 8 -9 10 -11 0
1 -6 7 8 -9 -10 11 0
1 -6 7 -8 9 10 -11 0
1 -6 7 -8 9 -10 11 0
1 -6 7 -8 -9 10 11 0
1 -6 7 -8 -9 -10 -11 0
1 -6 -7 8 9 10 -11 0
1 -6 -7 8 9 -10 11 0
1 -6 -7 8 -9 10 11 0
1 -6 -7 8 -9 -10 -11 0
1 -6 -7 -8 9 10 11 0
1 -6 -7 -8 9 -10 -11 0
1 -6 -7 -8 -9 10 -11 0
1 -6 -7 -8 -9 -10 11 0
-1 6 7 8 9 10 11 0
-1 6 7 8 9 -10 -11 0
-1 6 7 8 -9 10 -11 0
-1 6 7 8 -9 -10 11 0
-1 6 7 -8 9 10 -11 0
-1 6 7 -8 9 -10 11 0
-1 6 7 -8 -9 10 11 0
-1 6 7 -8 -9 -10 -11 0
-1 6 -7 8 9 10 -11 0
-1 6 -7 8 9 -10 11 0
-1 6 -7 8 -9 10 11 0
-1 6 -7 8 -9 -10 -11 0
-1 6 -7 -8 9 10 11 0
-1 6 -7 -8 9 -10 -11 0
-1 6 -7 -8 -9 10 -11 0
-1 6 -7 -8 -9 -10 11 0
-1 -6 7 8 9 10 -11 0
-1 -6 7 8 9 -10 11 0
-1 -6 7 8 -9 10 11 0
-1 -6 7 8 -9 -10 -11 0
-1 -6 7 -8 9 10 11 0
-1 -6 7 -8 9 -10 -11 0
-1 -6 7 -8 -9 10 -11 0
-1 -6 7 -8 -9 -10 11 0
-1 -6 -7 8 9 10 11 0
-1 -6 -7 8 9 -10 -11 0
-1 -6 -7 8 -9 10 -11 0
-1 -6 -7 8 -9 -10 11 0
-1 -6 -7 -8 9 10 -11 0
-1 -6 -7 -8 9 -10 11 0
-1 -6 -7 -8 -9 10 11 0
-1 -6 -7 -8 -9 -10 -11 0
6 12 13 14 15 -16 0
6 12 13 14 -15 16 0
6 12 13 -14 15 16 0
6 12 13 -14 -15 -16 0
6 12 -13 14 15 16 0
6 12 -13 14 -15 -16 0
6 12 -13 -14 15 -16 0
6 12 -13 -14 -15 16 0
6 -12 13 14 15 16 0
6 -12 13 14 -15 -16 0
6 -12 13 -14 15 -16 0
6 -12 13 -14 -15 16 0
6 -12 -13 14 15 -16 0
6 -12 -13 14 -15 16 0
6 -12 -13 -14 15 16 0
6 -12 -13 -14 -15 -16 0
-6 12 13 14 15 16 0
-6 12 13 14 -15 -16 0
-6 12 13 -14 15 -16 0
-6 12 13 -14 -15 16 0
-6 12 -13 14 15 -16 0
-6 12 -13 14 -15 16 0
-6 12 -13 -14 15 16 0
-6 12 -13 -14 -15 -16 0
-6 -12 13 14 15 -16 0
-6 -12 13 14 -15 16 0
-6 -12 13 -14 15 16 0
-6 -12 13 -14 -15 -16 0
-6 -12 -13 14 15 16 0
-6 -12 -13 14 -15 -16 0
-6 -12 -13 -14 15 -16 0
-6 -12 -13 -14 -15 16 0
2 7 17 18 19 20 -21 0
2 7 17 18 19 -20 21 0
2 7 17 18 -19 20 21 0
2 7 17 18 -19 -20 -21 0
2 7 17 -18 19 20 21 0
2 7 17 -18 19 -20 -21 0
2 7 17 -18 -19 20 -21 0
2 7 17 -18 -19 -20 21 0
2 7 -17 18 19 20 21 0
2 7 -17 18 19 -20 -21 0
2 7 -17 18 -19 20 -21 0
2 7 -17 18 -19 -20 21 0
2 7 -17 -18 19 20 -21 0
2 7 -17 -18 19 -20 21 0
2 7 -17 -18 -19 20 21 0
2 7 -17 -18 -19 -20 -21 0
2 -7 17 18 19 20 21 0
2 -7 17 18 19 -20 -21 0
2 -7 17 18 -19 20 -21 0
2 -7 17 18 -19 -20 21 0
2 -7 17 -18 19 20 -21 0
2 -7 17 -18 19 -20 21 0
2 -7 17 -18 -19 20 21 0
2 -7 17 -18 -19 -20 -21 0
2 -7 -17 18 19 20 -21 0
2 -7 -17 18 19 -20 21 0
2 -7 -17 18 -19 20 21 0
2 -7 -17 18 -19 -20 -21 0
2 -7 -17 -18 19 20 21 0
2 -7 -17 -18 19 -20 -21 0
2 -7 -17 -18 -19 20 -21 0
2 -7 -17 -18 -19 -20 21 0
-2 7 17 18 19 20 21 0
-2 7 17 18 19 -20 -21 0
-2 7 17 18 -19 20 -21 0
-2 7 17 18 -19 -20 21 0
-2 7 17 -18 19 20 -21 0
-2 7 17 -18 19 -20 21 0
-2 7 17 -18 -19 20 21 0
-2 7 17 -18 -19 -20 -21 0
-2 7 -17 18 19 20 -21 0
-2 7 -17 18 19 -20 21 0
-2 7 -17 18 -19 20 21 0
-2 7 -17 18 -19 -20 -21 0
-2 7 -17 -18 19 20 21 0
-2 7 -17 -18 19 -20 -21 0
-2 7 -17 -18 -19 20 -21 0
-2 7 -17 -18 -19 -20 21 0
-2 -7 17 18 19 20 -21 0
-2 -7 17 18 19 -20 21 0
-2 -7 17 18 -19 20 21 0
-2 -7 17 18 -19 -20 -21 0
-2 -7 17 -18 19 20 21 0
-2 -7 17 -18 19 -20 -21 0
-2 -7 17 -18 -19 20 -21 0
-2 -7 17 -18 -19 -20 21 0
-2 -7 -17 18 19 20 21 0
-2 -7 -17 18 19 -20 -21 0
-2 -7 -17 18 -19 20 -21 0
-2 -7 -17 18 -19 -20 21 0
-2 -7 -17 -18 19 20 -21 0
-2 -7 -17 -18 19 -20 21 0
-2 -7 -17 -18 -19 20 21 0
-2 -7 -17 -18 -19 -20 -21 0
3 8 17 -22 0
3 8 -17 22 0
3 -8 17 22 0
3 -8 -17 -22 0
-3 8 17 22 0
-3 8 -17 -22 0
-3 -8 17 -22 0
-3 -8 -17 22 0
9 12 18 23 24 -25 0
9 12 18 23 -24 25 0
9 12 18 -23 24 25 0
9 12 18 -23 -24 -25 0
9 12 -18 23 24 25 0
9 12 -18 23 -24 -25 0
9 12 -18 -23 24 -25 0
9 12 -18 -23 -24 25 0
9 -12 18 23 24 25 0
9 -12 18 23 -24 -25 0
9 -12 18 -23 24 -25 0
9 -12 18 -23 -24 25 0
9 -12 -18 23 24 -25 0
9 -12 -18 23 -24 25 0
9 -12 -18 -23 24 25 0
9 -12 -18 -23 -24 -25 0
-9 12 18 23 24 25 0
-9 12 18 23 -24 -25 0
-9 12 18 -23 24 -25 0
-9 12 18 -23 -24 25 0
-9 12 -18 23 24 -25 0
-9 12 -18 23 -24 25 0
-9 12 -18 -23 24 25 0
-9 12 -18 -23 -24 -25 0
-9 -12 18 23 24 -25 0
-9 -12 18 23 -24 25 0
-9 -12 18 -23 24 25 0
-9 -12 18 -23 -24 -25 0
-9 -12 -18 23 24 25 0
-9 -12 -18 23 -24 -25 0
-9 -12 -18 -23 24 -25 0
-9 -12 -18 -23 -24 25 0
4 10 13 19 22 23 26 -27 0
4 10 13 19 22 23 -26 27 0
4 10 13 19 22 -23 26 27 0
4 10 13 19 22 -23 -26 -27 0
4 10 13 19 -22 23 26 27 0
4 10 13 19 -22 23 -26 -27 0
4 10 13 19 -22 -23 26 -27 0
4 10 13 19 -22 -23 -26 27 0
4 10 13 -19 22 23 26 27 0
4 10 13 -19 22 23 -26 -27 0
4 10 13 -19 22 -23 26 -27 0
4 10 13 -19 22 -23 -26 27 0
4 10 13 -19 -22 23 26 -27 0
4 10 13 -19 -22 23 -26 27 0
4 10 13 -19 -22 -23 26 27 0
4 10 13 -19 -22 -23 -26 -27 0
4 10 -13 19 22 23 26 27 0
4 10 -13 19 22 23 -26 -27 0
4 10 -13 19 22 -23 26 -27 0
4 10 -13 19 22 -23 -26 27 0
4 10 -13 19 -22 23 26 -27 0
4 10 -13 19 -22 23 -26 27 0
4 10 -13 19 -22 -23 26 27 0
4 10 -13 19 -22 -23 -26 -27 0
4 10 -13 -19 22 23 26 -27 0
4 10 -13 -19 22 23 -26 27 0
4 10 -13 -19 22 -23 26 27 0
4 10 -13 -19 22 -23 -26 -27 0
4 10 -13 -19 -22 23 26 27 0
4 10 -13 -19 -22 23 -26 -27 0
4 10 -13 -19 -22 -23 26 -27 0
4 10 -13 -19 -22 -23 -26 27 0
4 -10 13 19 22 23 26 27 0
4 -10 13 19 22 23 -26 -27 0
4 -10 13 19 22 -23 26 -27 0
4 -10 13 19 22 -23 -26 27 0
4 -10 13 19 -22 23 26 -27 0
4 -10 13 19 -22 23 -26 27 0
4 -10 13 19 -22 -23 26 27 0
4 -10 13 19 -22 -23 -26 -27 0
4 -10 13 -19 22 23 26 -27 0
4 -10 13 -19 22 23 -26 27 0
4 -10 13 -19 22 -23 26 27 0
4 -10 13 -19 22 -23 -26 -27 0
4 -10 13 -19 -22 23 26 27 0
4 -10 13 -19 -22 23 -26 -27 0
4 -10 13 -19 -22 -23 26 -27 0
4 -10 13 -19 -22 -23 -26 27 0
4 -10 -13 19 22 23 26 -27 0
4 -10 -13 19 22 23 -26 27 0
4 -10 -13 19 22 -23 26 27 0
4 -10 -13 19 22 -23 -26 -27 0
4 -10 -13 19 -22 23 26 27 0
4 -10 -13 19 -22 23 -26 -27 0
4 -10 -13 19 -22 -23 26 -27 0
4 -10 -13 19 -22 -23 -26 27 0
4 -10 -13 -19 22 23 26 27 0
4 -10 -13 -19 22 23 -26 -27 0
4 -10 -13 -19 22 -23 26 -27 0
4 -10 -13 -19 22 -23 -26 27 0
4 -10 -13 -19 -22 23 26 -27 0
4 -10 -13 -19 -22 23 -26 27 0
4 -10 -13 -19 -22 -23 26 27 0
4 -10 -13 -19 -22 -23 -26 -27 0
-4 10 13 19 22 23 26 27 0
-4 10 13 19 22 23 -26 -27 0
-4 10 13 19 22 -23 26 -27 0
-4 10 13 19 22 -23 -26 27 0
-4 10 13 19 -22 23 26 -27 0
-4 10 13 19 -22 23 -26 27 0
-4 10 13 19 -22 -23 26 27 0
-4 10 13 19 -22 -23 -26 -27 0
-4 10 13 -19 22 23 26 -27 0
-4 10 13 -19 22 23 -26 27 0
-4 10 13 -19 22 -23 26 27 0
-4 10 13 -19 22 -23 -26 -27 0
-4 10 13 -19 -22 23 26 27 0
-4 10 13 -19 -22 23 -26 -27 0
-4 10 13 -19 -22 -23 26 -27 0
-4 10 13 -19 -22 -23 -26 27 0
-4 10 -13 19 22 23 26 -27 0
-4 10 -13 19 22 23 -26 27 0
-4 10 -13 19 22 -23 26 27 0
-4 10 -13 19 22 -23 -26 -27 0
-4 10 -13 19 -22 23 26 27 0
-4 10 -13 19 -22 23 -26 -27 0
-4 10 -13 19 -22 -23 26 -27 0
-4 10 -13 19 -22 -23 -26 27 0
-4 10 -13 -19 22 23 26 27 0
-4 10 -13 -19 22 23 -26 -27 0
-4 10 -13 -19 22 -23 26 -27 0
-4 10 -13 -19 22 -23 -26 27 0
-4 10 -13 -19 -22 23 26 -27 0
-4 10 -13 -19 -22 23 -26 27 0
-4 10 -13 -19 -22 -23 26 27 0
-4 10 -13 -19 -22 -23 -26 -27 0
-4 -10 13 19 22 23 26 -27 0
-4 -10 13 19 22 23 -26 27 0
-4 -10 13 19 22 -23 26 27 0
-4 -10 13 19 22 -23 -26 -27 0
-4 -10 13 19 -22 23 26 27 0
-4 -10 13 19 -22 23 -26 -27 0
-4 -10 13 19 -22 -23 26 -27 0
-4 -10 13 19 -22 -23 -26 27 0
-4 -10 13 -19 22 23 26 27 0
-4 -10 13 -19 22 23 -26 -27 0
-4 -10 13 -19 22 -23 26 -27 0
-4 -10 13 -19 22 -23 -26 27 0
-4 -10 13 -19 -22 23 26 -27 0
-4 -10 13 -19 -22 23 -26 27 0
-4 -10 13 -19 -22 -23 26 27 0
-4 -10 13 -19 -22 -23 -26 -27 0
-4 -10 -13 19 22 23 26 27 0
-4 -10 -13 19 22 23 -26 -27 0
-4 -10 -13 19 22 -23 26 -27 0
-4 -10 -13 19 22 -23 -26 27 0
-4 -10 -13 19 -22 23 26 -27 0
-4 -10 -13 19 -22 23 -26 27 0
-4 -10 -13 19 -22 -23 26 27 0
-4 -10 -13 19 -22 -23 -26 -27 0
-4 -10 -13 -19 22 23 26 -27 0
-4 -10 -13 -19 22 23 -26 27 0
-4 -10 -13 -19 22 -23 26 27 0
-4 -10 -13 -19 22 -23 -26 -27 0
-4 -10 -13 -19 -22 23 26 27 0
-4 -10 -13 -19 -22 23 -26 -27 0
-4 -10 -13 -19 -22 -23 26 -27 0
-4 -10 -13 -19 -22 -23 -26 27 0
11 14 20 24 26 28 -29 0
11 14 20 24 26 -28 29 0
11 14 20 24 -26 28 29 0
11 14 20 24 -26 -28 -29 0
11 14 20 -24 26 28 29 0
11 14 20 -24 26 -28 -29 0
11 14 20 -24 -26 28 -29 0
11 14 20 -24 -26 -28 29 0
11 14 -20 24 26 28 29 0
11 14 -20 24 26 -28 -29 0
11 14 -20 24 -26 28 -29 0
11 14 -20 24 -26 -28 29 0
11 14 -20 -24 26 28 -29 0
11 14 -20 -24 26 -28 29 0
11 14 -20 -24 -26 28 29 0
11 14 -20 -24 -26 -28 -29 0
11 -14 20 24 26 28 29 0
11 -14 20 24 26 -28 -29 0
11 -14 20 24 -26 28 -29 0
11 -14 20 24 -26 -28 29 0
11 -14 20 -24 26 28 -29 0
11 -14 20 -24 26 -28 29 0
11 -14 20 -24 -26 28 29 0
11 -14 20 -24 -26 -28 -29 0
11 -14 -20 24 26 28 -29 0
11 -14 -20 24 26 -28 29 0
11 -14 -20 24 -26 28 29 0
11 -14 -20 24 -26 -28 -29 0
11 -14 -20 -24 26 28 29 0
11 -14 -20 -24 26 -28 -29 0
11 -14 -20 -24 -26 28 -29 0
11 -14 -20 -24 -26 -28 29 0
-11 14 20 24 26 28 29 0
-11 14 20 24 26 -28 -29 0
-11 14 20 24 -26 28 -29 0
-11 14 20 24 -26 -28 29 0
-11 14 20 -24 26 28 -29 0
-11 14 20 -24 26 -28 29 0
-11 14 20 -24 -26 28 29 0
-11 14 20 -24 -26 -28 -29 0
-11 14 -20 24 26 28 -29 0
-11 14 -20 24 26 -28 29 0
-11 14 -20 24 -26 28 29 0
-11 14 -20 24 -26 -28 -29 0
-11 14 -20 -24 26 28 29 0
-11 14 -20 -24 26 -28 -29 0
-11 14 -20 -24 -26 28 -29 0
-11 14 -20 -24 -26 -28 29 0
-11 -14 20 24 26 28 -29 0
-11 -14 20 24 26 -28 29 0
-11 -14 20 24 -26 28 29 0
-11 -14 20 24 -26 -28 -29 0
-11 -14 20 -24 26 28 29 0
-11 -14 20 -24 26 -28 -29 0
-11 -14 20 -24 -26 28 -29 0
-11 -14 20 -24 -26 -28 29 0
-11 -14 -20 24 26 28 29 0
-11 -14 -20 24 26 -28 -29 0
-11 -14 -20 24 -26 28 -29 0
-11 -14 -20 24 -26 -28 29 0
-11 -14 -20 -24 26 28 -29 0
-11 -14 -20 -24 26 -28 29 0
-11 -14 -20 -24 -26 28 29 0
-11 -14 -20 -24 -26 -28 -29 0
15 21 28 -30 0
15 21 -28 30 0
15 -21 28 30 0
15 -21 -28 -30 0
-15 21 28 30 0
-15 21 -28 -30 0
-15 -21 28 -30 0
-15 -21 -28 30 0
5 16 25 27 29 -30 0
5 16 25 27 -29 30 0
5 16 25 -27 29 30 0
5 16 25 -27 -29 -30 0
5 16 -25 27 29 30 0
5 16 -25 27 -29 -30 0
5 16 -25 -27 29 -30 0
5 16 -25 -27 -29 30 0
5 -16 25 27 29 30 0
5 -16 25 27 -29 -30 0
5 -16 25 -27 29 -30 0
5 -16 25 -27 -29 30 0
5 -16 -25 27 29 -30 0
5 -16 -25 27 -29 30 0
5 -16 -25 -27 29 30 0
5 -16 -25 -27 -29 -30 0
-5 16 25 27 29 30 0
-5 16 25 27 -29 -30 0
-5 16 25 -27 29 -30 0
-5 16 25 -27 -29 30 0
-5 16 -25 27 29 -30 0
-5 16 -25 27 -29 30 0
-5 16 -25 -27 29 30 0
-5 16 -25 -27 -29 -30 0
-5 -16 25 27 29 -30 0
-5 -16 25 27 -29 30 0
-5 -16 25 -27 29 30 0
-5 -16 25 -27 -29 -30 0
-5 -16 -25 27 29 30 0
-5 -16 -25 27 -29 -30 0
-5 -16 -25 -27 29 -30 0
-5 -16 -25 -27 -29 30 0